(set-logic QF_S)
(set-option :parse-transducers true)
(set-option :produce-models true)
(define-fun-rec toLower ((x String) (y String)) Bool
   (or (and (= x "") (= y ""))
       (and (not (= x "")) (not (= y ""))
           (= (char.code (str.head y))
               (ite (and (<= 65 (char.code (str.head x)))
                       (<= (char.code (str.head x)) 90))
                   (+ (char.code (str.head x)) 32)
                   (char.code (str.head x))))
           (toLower (str.tail x) (str.tail y))))
)
(declare-fun r1[$i2] () String)
(declare-fun $r3 () String)
(declare-fun L9  () String)
(declare-fun L7  () String)
(declare-fun L30  () String)
(declare-fun L5  () String)
(declare-fun L65  () String)
(declare-fun L11  () String)
(declare-fun L3  () String)
(declare-fun L1  () String)
(declare-fun L61  () String)
(declare-fun L0  () String)
(assert (toLower $r3  L0 ))
(assert (toLower "field"  L61 ))
(assert (toLower "name"  L1 ))
(assert (toLower "type"  L3 ))
(assert (toLower "option"  L11 ))
(assert (toLower "table"  L65 ))
(assert (toLower "length"  L5 ))
(assert (toLower r1[$i2]  L30 ))
(assert (toLower "database"  L7 ))
(assert (toLower "description"  L9 ))

(assert (= L0 L1 ))
(assert (not (= L0 L3 )))
(assert (not (= L0 L5 )))
(assert (= L0 L7 ))
(assert (not (= L0 L9 )))
(assert (= L0 L11 ))
(assert (not (= L0 L9 )))
(assert (= L0 L9 ))
(assert (not (= L0 L9 )))
(assert (not (= L0 L9 )))
(assert (not (= L0 L9 )))
(assert (= L0 L1 ))
(assert (= L0 L1 ))
(assert (not (= L0 L9 )))
(assert (not (= L0 L1 )))
(assert (not (= L30 "sql" )))
(assert (= L0 L1 ))
(assert (not (= L0 L1 )))
(assert (= L0 L9 ))
(assert (= L0 L9 ))
(assert (not (= L0 L1 )))
(assert (not (= L0 L1 )))
(assert (= L0 L11 ))
(assert (not (= L0 L9 )))
(assert (not (= L0 L1 )))
(assert (= L30 "html" ))
(assert (not (= L0 L9 )))
(assert (not (= L0 L1 )))
(assert (= L0 L3 ))
(assert (not (= L0 L3 )))
(assert (not (= L0 L1 )))
(assert (= L0 L61 ))
(assert (= L0 L5 ))
(assert (= L0 L65 ))
(assert (not (= L0 L1 )))
(assert (not (= L0 L9 )))
(assert (not (= L0 L5 )))
(assert (not (= L0 L1 )))
(assert (not (= L0 L9 )))
(assert (not (= L0 L1 )))
(assert (not (= L0 L65 )))
(assert (= L0 L1 ))
(assert (not (= L0 L9 )))
(assert (= L0 L61 ))
(assert (not (= L0 L1 )))
(assert (not (= L0 L1 )))
(assert (= L0 L9 ))
(assert (not (= L0 L61 )))
(assert (not (= L0 L1 )))
(assert (= L0 L1 ))
(assert (not (= L0 L3 )))
(assert (= L0 L11 ))
(assert (not (= L0 L3 )))
(assert (not (= L0 L1 )))
(assert (not (= L0 L1 )))
(assert (= L0 L3 ))
(assert (not (= L0 L5 )))
(check-sat)
(get-model)
(exit)
